100	122160

339 239
1092 992
1052 952
245 145
323 223
469 369
354 254
1043 943
742 642
619 519
126 26
617 517
515 415
670 570
757 657
802 702
970 870
768 668
343 243
765 665
846 746
835 735
971 871
1069 969
200 100
973 873
1031 931
923 823
418 318
240 140
213 113
631 531
609 509
734 634
343 243
576 476
605 505
161 61
655 555
326 226
171 71
255 155
678 578
420 320
733 633
981 881
770 670
1082 982
287 187
504 404
993 893
847 747
1093 993
187 87
836 736
745 645
630 530
824 724
120 20
353 253
349 249
1051 951
539 439
192 92
278 178
895 795
621 521
386 286
579 479
144 44
115 15
554 454
276 176
665 565
297 197
1079 979
714 614
779 679
938 838
560 460
373 273
957 857
858 758
520 420
1013 913
336 236
141 41
844 744
894 794
624 524
986 886
110 10
461 361
937 837
284 184
893 793
616 516
605 505
511 411
627 527
